
******************************************************************************
This program contains Ipopt, a library for large-scale nonlinear optimization.
 Ipopt is released as open source code under the Eclipse Public License (EPL).
         For more information visit http://projects.coin-or.org/Ipopt
******************************************************************************

This is Ipopt version 3.13.2, running with linear solver mumps.
NOTE: Other linear solvers might be more efficient (see Ipopt documentation).

Number of nonzeros in equality constraint Jacobian...:        0
Number of nonzeros in inequality constraint Jacobian.:     8450
Number of nonzeros in Lagrangian Hessian.............:        0

Total number of variables............................:     4225
                     variables with only lower bounds:        0
                variables with lower and upper bounds:     4225
                     variables with only upper bounds:        0
Total number of equality constraints.................:        0
Total number of inequality constraints...............:        2
        inequality constraints with only lower bounds:        2
   inequality constraints with lower and upper bounds:        0
        inequality constraints with only upper bounds:        0

iter    objective    inf_pr   inf_du lg(mu)  ||d||  lg(rg) alpha_du alpha_pr  ls
   0  1.8663436e-01 3.14e+00 2.80e-01  -1.0 0.00e+00    -  0.00e+00 0.00e+00   0
   1  1.8702770e-01 3.13e+00 9.46e+01  -1.0 1.64e+00    -  5.52e-01 6.05e-03f  1
   2  1.9557760e-01 3.06e+00 7.71e+02  -1.0 1.91e+00    -  4.60e-01 1.98e-02f  1
   3  2.7280536e-01 2.61e+00 1.29e+03  -1.0 1.96e+00    -  2.20e-01 1.29e-01f  1
   4  2.2251395e+00 8.93e-01 3.41e+02  -1.0 1.17e+00    -  2.71e-01 7.34e-01f  1
   5  2.5580182e+00 6.67e-01 3.41e+00  -1.0 4.31e-01    -  1.00e+00 1.00e+00f  1
   6  2.5620457e+00 6.44e-01 1.15e+03  -1.0 6.53e-01    -  4.52e-01 3.90e-02f  1
   7  1.8609074e+00 7.65e-01 7.06e+02  -1.0 2.20e+00    -  4.59e-01 4.21e-01f  1
   8  3.4162637e+00 4.18e-01 4.17e+02  -1.0 7.34e-01    -  5.59e-01 4.78e-01h  1
   9  5.0307086e+00 1.05e-01 1.06e+02  -1.0 7.12e-01    -  1.00e+00 7.90e-01h  1
iter    objective    inf_pr   inf_du lg(mu)  ||d||  lg(rg) alpha_du alpha_pr  ls
  10  4.8977591e+00 2.31e-03 6.70e+01  -1.0 4.50e-01    -  5.77e-01 1.00e+00h  1
  11  5.1608103e+00 0.00e+00 5.30e-01  -1.0 1.62e-01    -  1.00e+00 1.00e+00h  1
  12  4.3204330e+00 2.15e-05 1.40e+02  -1.7 1.19e-01    -  6.67e-01 1.00e+00f  1
  13  4.0362031e+00 0.00e+00 1.68e-01  -1.7 6.60e-02    -  1.00e+00 1.00e+00f  1
  14  3.4199243e+00 3.26e-04 2.74e+01  -2.5 2.01e-01    -  7.21e-01 1.00e+00f  1
  15  2.9300251e+00 8.04e-04 1.07e-01  -2.5 2.16e-01    -  1.00e+00 1.00e+00f  1
  16  2.6956771e+00 3.91e-04 4.12e-01  -2.5 2.49e-01    -  1.00e+00 6.92e-01f  1
  17  2.5047067e+00 2.23e-04 6.07e-02  -2.5 1.66e-01    -  1.00e+00 9.78e-01f  1
  18  2.4468523e+00 0.00e+00 3.77e-02  -2.5 8.28e-02    -  1.00e+00 1.00e+00f  1
  19  2.4419907e+00 1.91e-04 4.85e-02  -2.5 1.81e-01    -  1.00e+00 1.00e+00f  1
iter    objective    inf_pr   inf_du lg(mu)  ||d||  lg(rg) alpha_du alpha_pr  ls
  20  2.4166308e+00 0.00e+00 1.28e-02  -2.5 6.40e-02    -  1.00e+00 1.00e+00f  1
  21  2.1345316e+00 2.83e-04 1.31e+00  -3.8 3.21e-01    -  5.53e-01 6.31e-01f  1
  22  2.0011415e+00 1.19e-04 8.42e-02  -3.8 5.19e-01    -  3.80e-01 2.71e-01f  1
  23  1.8023557e+00 0.00e+00 8.83e-01  -3.8 8.41e-01    -  2.54e-01 4.23e-01f  1
  24  1.6729555e+00 0.00e+00 2.01e-01  -3.8 9.70e-01    -  3.86e-01 2.66e-01f  1
  25  1.4832164e+00 0.00e+00 2.92e-01  -3.8 5.95e-01    -  6.24e-01 4.82e-01f  1
  26  1.3656033e+00 0.00e+00 4.22e-01  -3.8 1.18e+00    -  5.00e-01 2.34e-01f  1
  27  1.2744068e+00 0.00e+00 3.72e-01  -3.8 1.92e+00    -  2.78e-01 1.97e-01f  1
  28  1.2115249e+00 0.00e+00 4.53e-01  -3.8 1.70e+00    -  6.06e-01 1.50e-01f  1
  29  1.1054156e+00 0.00e+00 7.12e-01  -3.8 8.70e-01    -  8.83e-01 3.36e-01f  1
iter    objective    inf_pr   inf_du lg(mu)  ||d||  lg(rg) alpha_du alpha_pr  ls
  30  9.9161551e-01 0.00e+00 6.39e-01  -3.8 1.52e+00    -  6.49e-01 2.93e-01f  1
  31  9.1617726e-01 0.00e+00 3.83e-01  -3.8 8.61e-01    -  3.83e-01 3.89e-01f  1
  32  8.6902456e-01 0.00e+00 3.52e-01  -3.8 7.79e-01    -  4.64e-01 3.71e-01f  1
  33  8.4249233e-01 0.00e+00 6.22e-01  -3.8 1.33e+00    -  5.31e-01 1.80e-01f  1
  34  7.8866451e-01 1.28e-04 2.78e-01  -3.8 1.33e+00    -  3.16e-01 3.99e-01f  1
  35  7.7331644e-01 4.43e-04 5.51e-01  -3.8 7.46e-01    -  4.38e-01 1.56e-01f  1
  36  7.4480214e-01 2.95e-03 4.95e-01  -3.8 6.19e-01    -  3.66e-01 3.08e-01f  1
  37  7.2590234e-01 3.28e-03 2.88e-01  -3.8 5.74e-01    -  6.18e-01 5.74e-01f  1
  38  7.1644249e-01 3.20e-03 3.93e-01  -3.8 9.12e-01    -  6.18e-01 2.69e-01f  1
  39  7.0956995e-01 2.21e-03 3.41e-01  -3.8 5.68e-01    -  6.23e-01 3.36e-01f  1
iter    objective    inf_pr   inf_du lg(mu)  ||d||  lg(rg) alpha_du alpha_pr  ls
  40  7.0073392e-01 9.02e-04 1.98e-01  -3.8 6.31e-01    -  8.18e-01 5.44e-01f  1
  41  6.9760704e-01 2.01e-03 1.19e-01  -3.8 6.61e-01    -  8.28e-01 5.68e-01f  1
  42  6.9052626e-01 4.28e-04 4.43e-03  -3.8 1.77e-01    -  1.00e+00 1.00e+00f  1
  43  6.7941900e-01 1.35e-03 4.18e-03  -3.8 2.29e-01    -  1.00e+00 1.00e+00h  1
  44  6.7289000e-01 1.32e-03 3.54e-03  -3.8 1.46e-01    -  1.00e+00 1.00e+00h  1
  45  6.7167042e-01 1.73e-03 2.96e-03  -3.8 1.74e-01    -  1.00e+00 9.50e-01h  1
  46  6.6785842e-01 6.79e-04 1.97e-03  -3.8 1.70e-01    -  1.00e+00 1.00e+00f  1
  47  6.6113852e-01 9.15e-04 2.18e-03  -3.8 2.93e-01    -  1.00e+00 1.00e+00h  1
  48  6.6044191e-01 4.14e-04 1.32e-03  -3.8 2.59e-01    -  1.00e+00 1.00e+00h  1
  49  6.0190726e-01 0.00e+00 4.51e-02  -5.7 1.19e+00    -  2.62e-01 2.87e-01f  1
iter    objective    inf_pr   inf_du lg(mu)  ||d||  lg(rg) alpha_du alpha_pr  ls
  50  5.8385485e-01 0.00e+00 1.39e-01  -5.7 1.32e+00    -  2.00e-01 1.04e-01f  1
  51  5.5084824e-01 0.00e+00 7.56e-02  -5.7 3.29e+00    -  1.17e-01 1.50e-01f  1
  52  5.3542224e-01 0.00e+00 1.30e-01  -5.7 3.13e+00    -  1.34e-01 8.11e-02f  1
  53  5.1416429e-01 0.00e+00 8.87e-02  -5.7 3.88e+00    -  9.52e-02 1.19e-01f  1
  54  4.9845221e-01 0.00e+00 7.58e-02  -5.7 5.44e+00    -  9.77e-02 1.01e-01f  1
  55  4.8354781e-01 0.00e+00 9.45e-02  -5.7 2.39e+00    -  1.47e-01 1.23e-01f  1
  56  4.7331836e-01 0.00e+00 8.85e-02  -5.7 2.98e+00    -  9.77e-02 9.52e-02f  1
  57  4.6505870e-01 0.00e+00 1.36e-01  -5.7 3.29e+00    -  1.31e-01 7.75e-02f  1
  58  4.5321886e-01 0.00e+00 1.25e-01  -5.7 3.03e+00    -  1.23e-01 1.18e-01f  1
  59  4.4315578e-01 0.00e+00 1.21e-01  -5.7 3.19e+00    -  1.21e-01 1.10e-01f  1
iter    objective    inf_pr   inf_du lg(mu)  ||d||  lg(rg) alpha_du alpha_pr  ls
  60  4.3487921e-01 0.00e+00 1.39e-01  -5.7 2.76e+00    -  1.37e-01 1.02e-01f  1
  61  4.2639264e-01 0.00e+00 1.08e-01  -5.7 3.20e+00    -  9.24e-02 1.12e-01f  1
  62  4.1949172e-01 0.00e+00 8.23e-02  -5.7 5.44e+00    -  6.58e-02 8.97e-02f  1
  63  4.1514693e-01 0.00e+00 1.46e-01  -5.7 3.57e+00    -  1.62e-01 6.93e-02f  1
  64  4.1033029e-01 0.00e+00 1.22e-01  -5.7 2.79e+00    -  6.81e-02 8.27e-02f  1
  65  4.0320864e-01 0.00e+00 1.17e-01  -5.7 4.02e+00    -  1.32e-01 1.16e-01f  1
  66  3.9968815e-01 0.00e+00 1.85e-01  -5.7 3.32e+00    -  1.99e-01 6.89e-02f  1
  67  3.9445610e-01 0.00e+00 1.32e-01  -5.7 3.98e+00    -  3.96e-02 1.02e-01f  1
  68  3.9068583e-01 1.46e-04 1.65e-01  -5.7 3.60e+00    -  1.69e-01 8.41e-02f  1
  69  3.8585119e-01 1.68e-04 1.54e-01  -5.7 1.86e+00    -  1.67e-01 1.45e-01f  1
iter    objective    inf_pr   inf_du lg(mu)  ||d||  lg(rg) alpha_du alpha_pr  ls
  70  3.8301489e-01 2.02e-04 1.48e-01  -5.7 3.03e+00    -  8.27e-02 7.26e-02f  1
  71  3.7994495e-01 3.36e-04 1.40e-01  -5.7 6.62e+00    -  6.63e-02 6.22e-02f  1
  72  3.7784033e-01 4.95e-04 1.55e-01  -5.7 4.98e+00    -  1.01e-01 4.65e-02f  1
  73  3.7530031e-01 6.20e-04 1.57e-01  -5.7 2.78e+00    -  9.94e-02 7.32e-02f  1
  74  3.7330824e-01 7.29e-04 1.73e-01  -5.7 2.97e+00    -  1.05e-01 5.38e-02f  1
  75  3.7125138e-01 7.53e-04 2.04e-01  -5.7 2.96e+00    -  1.65e-01 5.50e-02f  1
  76  3.6807900e-01 1.28e-03 1.93e-01  -5.7 5.50e+00    -  6.20e-02 5.95e-02f  1
  77  3.6527715e-01 1.47e-03 2.05e-01  -5.7 4.09e+00    -  1.70e-01 6.92e-02h  1
  78  3.6328937e-01 1.46e-03 2.25e-01  -5.7 2.93e+00    -  1.63e-01 6.76e-02h  1
  79  3.6176055e-01 1.50e-03 2.18e-01  -5.7 2.76e+00    -  6.58e-02 5.26e-02h  1
iter    objective    inf_pr   inf_du lg(mu)  ||d||  lg(rg) alpha_du alpha_pr  ls
  80  3.5909231e-01 1.70e-03 2.09e-01  -5.7 4.63e+00    -  9.67e-02 6.77e-02f  1
  81  3.5629451e-01 1.90e-03 1.95e-01  -5.7 3.60e+00    -  1.17e-01 8.95e-02h  1
  82  3.5475897e-01 2.21e-03 1.90e-01  -5.7 3.39e+00    -  7.51e-02 4.71e-02f  1
  83  3.5223539e-01 2.06e-03 1.75e-01  -5.7 1.63e+00    -  1.88e-01 1.39e-01f  1
  84  3.5111476e-01 2.06e-03 1.72e-01  -5.7 2.97e+00    -  9.02e-02 3.80e-02f  1
  85  3.4959158e-01 2.11e-03 1.63e-01  -5.7 3.25e+00    -  1.75e-01 5.78e-02f  1
  86  3.4655897e-01 2.33e-03 1.42e-01  -5.7 3.85e+00    -  1.49e-01 1.07e-01f  1
  87  3.4512877e-01 2.93e-03 1.34e-01  -5.7 2.07e+00    -  6.78e-02 5.75e-02h  1
  88  3.4374634e-01 2.62e-03 1.47e-01  -5.7 5.58e-01    -  3.08e-01 1.40e-01f  1
  89  3.4256073e-01 2.44e-03 1.55e-01  -5.7 1.33e+00    -  2.60e-01 8.17e-02f  1
iter    objective    inf_pr   inf_du lg(mu)  ||d||  lg(rg) alpha_du alpha_pr  ls
  90  3.4075101e-01 3.39e-03 1.43e-01  -5.7 2.59e+00    -  5.85e-02 7.43e-02f  1
  91  3.4029117e-01 3.26e-03 1.59e-01  -5.7 6.18e-01    -  4.58e-01 4.17e-02f  1
  92  3.3742595e-01 4.81e-03 1.41e-01  -5.7 2.33e+00    -  8.65e-02 1.25e-01f  1
  93  3.3629492e-01 4.80e-03 1.31e-01  -5.7 1.42e+00    -  1.14e-01 7.44e-02h  1
  94  3.3463324e-01 4.31e-03 1.07e-01  -5.7 1.50e+00    -  2.99e-01 1.31e-01f  1
  95  3.3333545e-01 4.59e-03 9.74e-02  -5.7 3.82e+00    -  1.14e-01 5.76e-02f  1
  96  3.3287882e-01 4.46e-03 1.08e-01  -5.7 1.05e+00    -  3.04e-01 4.17e-02h  1
  97  3.3069004e-01 3.96e-03 8.35e-02  -5.7 1.11e+00    -  1.46e-01 2.31e-01f  1
  98  3.2970153e-01 3.98e-03 7.82e-02  -5.7 4.73e+00    -  6.96e-02 4.43e-02h  1
  99  3.2877072e-01 4.15e-03 7.42e-02  -5.7 9.13e+00    -  4.62e-02 2.37e-02f  1
iter    objective    inf_pr   inf_du lg(mu)  ||d||  lg(rg) alpha_du alpha_pr  ls
 100  3.2810521e-01 4.15e-03 7.27e-02  -5.7 5.73e+00    -  7.83e-02 2.97e-02f  1
 101  3.2667228e-01 5.97e-03 7.12e-02  -5.7 1.75e+01    -  3.42e-02 2.61e-02f  1
 102  3.2647349e-01 5.83e-03 8.81e-02  -5.7 1.41e+00    -  3.40e-01 2.82e-02h  1
 103  3.2596709e-01 5.12e-03 9.75e-02  -5.7 5.56e-01    -  7.13e-01 1.31e-01f  1
 104  3.2485156e-01 5.66e-03 8.19e-02  -5.7 1.85e+00    -  1.41e-01 1.63e-01h  1
 105  3.2440295e-01 4.97e-03 2.68e-02  -5.7 6.13e-01    -  8.77e-01 1.41e-01h  1
 106  3.2334925e-01 3.99e-03 1.53e-02  -5.7 5.28e-01    -  4.60e-01 3.89e-01f  1
 107  3.2227913e-01 5.03e-03 1.31e-02  -5.7 6.26e-01    -  2.35e-01 1.86e-01f  1
 108  3.2166476e-01 3.30e-03 1.23e-02  -5.7 1.47e-01    -  1.00e+00 5.05e-01f  1
 109  3.2102074e-01 1.99e-03 1.82e-03  -5.7 2.64e-01    -  1.00e+00 5.59e-01f  1
iter    objective    inf_pr   inf_du lg(mu)  ||d||  lg(rg) alpha_du alpha_pr  ls
 110  3.2038469e-01 2.03e-03 2.09e-02  -5.7 6.19e-01    -  4.70e-01 3.24e-01f  1
 111  3.1981993e-01 2.07e-03 1.83e-02  -5.7 6.43e-01    -  8.11e-01 5.87e-01f  1
 112  3.1976874e-01 1.99e-03 1.45e-02  -5.7 5.07e-01    -  7.53e-01 4.82e-02f  1
 113  3.1933958e-01 1.98e-03 7.67e-03  -5.7 4.74e-01    -  4.41e-01 5.07e-01f  1
 114  3.1898198e-01 1.98e-03 1.43e-02  -5.7 8.29e-01    -  4.95e-01 2.43e-01f  1
 115  3.1879559e-01 1.67e-03 1.64e-02  -5.7 4.92e-01    -  6.84e-01 2.78e-01f  1
 116  3.1852778e-01 1.61e-03 1.52e-02  -5.7 1.09e+00    -  2.60e-01 1.77e-01f  1
 117  3.1829472e-01 1.52e-03 6.03e-03  -5.7 1.80e+00    -  3.36e-01 1.00e-01f  1
 118  3.1784117e-01 1.77e-03 5.32e-03  -5.7 5.30e+00    -  1.06e-01 7.88e-02f  1
 119  3.1765657e-01 1.75e-03 3.90e-03  -5.7 3.07e+00    -  2.80e-01 5.98e-02f  1
iter    objective    inf_pr   inf_du lg(mu)  ||d||  lg(rg) alpha_du alpha_pr  ls
 120  3.1739269e-01 3.88e-03 7.93e-03  -5.7 1.50e+00    -  4.15e-01 2.10e-01f  1
 121  3.1716668e-01 3.47e-03 6.63e-04  -5.7 9.86e-02    -  9.15e-01 1.00e+00f  1
 122  3.1717380e-01 1.25e-03 4.20e-04  -5.7 6.10e-02    -  1.00e+00 1.00e+00h  1
 123  3.1717795e-01 1.82e-04 3.93e-04  -5.7 6.72e-02    -  1.00e+00 9.71e-01h  1
 124  3.1707785e-01 2.00e-04 3.69e-03  -5.7 4.38e-01    -  4.99e-01 1.44e-01f  1
 125  3.1690613e-01 3.49e-04 2.20e-02  -5.7 6.34e-01    -  5.45e-01 1.48e-01f  1
 126  3.1669659e-01 5.95e-04 1.66e-02  -5.7 5.17e-01    -  2.48e-01 2.39e-01f  1
 127  3.1659486e-01 5.77e-04 4.38e-03  -5.7 6.13e-01    -  6.58e-01 1.70e-01f  1
 128  3.1627972e-01 1.63e-03 1.52e-03  -5.7 1.19e+00    -  2.69e-01 4.21e-01f  1
 129  3.1619915e-01 1.56e-03 4.14e-03  -5.7 1.27e+00    -  3.96e-01 9.77e-02f  1
iter    objective    inf_pr   inf_du lg(mu)  ||d||  lg(rg) alpha_du alpha_pr  ls
 130  3.1602696e-01 1.53e-03 9.99e-03  -5.7 8.30e-01    -  5.06e-01 1.67e-01f  1
 131  3.1578547e-01 1.74e-03 2.89e-03  -5.7 5.48e-01    -  7.97e-01 4.53e-01f  1
 132  3.1564777e-01 1.71e-03 1.45e-02  -5.7 3.72e-01    -  9.05e-01 4.33e-01f  1
 133  3.1562285e-01 9.97e-04 2.59e-03  -5.7 8.59e-02    -  8.07e-01 1.00e+00h  1
 134  3.1555224e-01 4.80e-04 1.60e-04  -5.7 6.26e-02    -  1.00e+00 1.00e+00h  1
 135  3.1555057e-01 2.70e-04 1.05e-02  -5.7 8.49e-02    -  1.00e+00 5.28e-01h  1
 136  3.1551143e-01 3.29e-04 9.82e-03  -5.7 2.46e-01    -  9.08e-01 5.45e-01f  1
 137  3.1539031e-01 4.16e-04 1.58e-03  -5.7 5.18e-01    -  1.00e+00 4.87e-01f  1
 138  3.1527110e-01 4.50e-04 2.53e-04  -5.7 1.58e+00    -  2.99e-01 1.40e-01f  1
 139  3.1514217e-01 4.92e-04 1.25e-03  -5.7 2.18e+00    -  5.43e-01 1.07e-01f  1
iter    objective    inf_pr   inf_du lg(mu)  ||d||  lg(rg) alpha_du alpha_pr  ls
 140  3.1495451e-01 6.84e-04 8.48e-03  -5.7 8.94e-01    -  9.33e-01 3.69e-01f  1
 141  3.1480411e-01 7.09e-04 2.69e-03  -5.7 8.74e-01    -  5.94e-01 2.58e-01f  1
 142  3.1466468e-01 1.35e-03 2.28e-03  -5.7 4.14e-01    -  7.57e-01 2.92e-01f  1
 143  3.1453188e-01 1.07e-03 2.61e-04  -5.7 9.33e-02    -  1.00e+00 1.00e+00f  1
 144  3.1444970e-01 8.36e-04 1.78e-04  -5.7 5.33e-02    -  1.00e+00 1.00e+00h  1
 145  3.1445803e-01 1.25e-04 1.37e-04  -5.7 4.95e-02    -  1.00e+00 1.00e+00h  1
 146  3.1439878e-01 6.19e-04 1.74e-03  -5.7 2.54e-01    -  9.68e-01 8.99e-01h  1
 147  3.1431809e-01 5.52e-04 6.05e-03  -5.7 5.19e-01    -  1.00e+00 2.61e-01f  1
 148  3.1420675e-01 6.12e-04 2.87e-03  -5.7 1.13e+00    -  3.98e-01 1.69e-01f  1
 149  3.1412626e-01 6.38e-04 1.44e-02  -5.7 1.03e+00    -  7.87e-01 1.22e-01f  1
iter    objective    inf_pr   inf_du lg(mu)  ||d||  lg(rg) alpha_du alpha_pr  ls
 150  3.1396717e-01 8.96e-04 7.46e-03  -5.7 7.88e-01    -  4.62e-01 4.09e-01f  1
 151  3.1389313e-01 1.11e-03 6.79e-03  -5.7 5.58e-01    -  7.62e-01 5.10e-01f  1
 152  3.1384373e-01 1.03e-03 3.94e-03  -5.7 5.44e-01    -  1.00e+00 2.20e-01f  1
 153  3.1373758e-01 1.08e-03 1.91e-03  -5.7 3.61e-01    -  5.53e-01 4.05e-01f  1
 154  3.1362179e-01 1.55e-03 2.41e-03  -5.7 1.69e-01    -  8.66e-01 6.20e-01f  1
 155  3.1362945e-01 6.12e-04 1.38e-04  -5.7 3.42e-02    -  1.00e+00 1.00e+00h  1
 156  3.1366213e-01 9.02e-05 1.15e-04  -5.7 2.51e-02    -  1.00e+00 1.00e+00h  1
 157  3.1364104e-01 5.55e-05 1.12e-04  -5.7 1.12e-01    -  1.00e+00 9.79e-01h  1
 158  3.1349826e-01 3.17e-04 3.51e-04  -5.7 1.49e+00    -  2.39e-01 2.28e-01f  1
 159  3.1342131e-01 3.27e-04 1.78e-03  -5.7 2.27e+00    -  4.16e-01 6.94e-02f  1
iter    objective    inf_pr   inf_du lg(mu)  ||d||  lg(rg) alpha_du alpha_pr  ls
 160  3.1326377e-01 3.74e-04 1.36e-03  -5.7 2.22e+00    -  2.76e-01 1.86e-01f  1
 161  3.1321842e-01 3.66e-04 1.35e-02  -5.7 9.38e-01    -  1.00e+00 1.58e-01f  1
 162  3.1309161e-01 1.20e-03 1.91e-02  -5.7 1.33e+00    -  1.00e+00 3.64e-01f  1
 163  3.1300441e-01 1.83e-03 8.37e-04  -5.7 1.12e-01    -  1.00e+00 8.82e-01f  1
 164  3.1295484e-01 1.22e-03 7.70e-04  -5.7 4.93e-02    -  7.27e-01 7.60e-01f  1
 165  3.1299827e-01 1.01e-04 1.82e-04  -5.7 3.59e-02    -  1.00e+00 1.00e+00h  1
 166  3.1301891e-01 5.05e-05 1.09e-04  -5.7 3.24e-02    -  1.00e+00 1.00e+00h  1
 167  3.1303579e-01 9.80e-05 2.12e-04  -5.7 1.05e-01    -  1.00e+00 1.00e+00h  1
 168  3.1290663e-01 1.08e-03 1.57e-03  -5.7 5.42e-01    -  6.42e-01 9.06e-01h  1
 169  3.1280922e-01 9.43e-04 6.31e-03  -5.7 7.09e-01    -  1.00e+00 2.70e-01f  1
iter    objective    inf_pr   inf_du lg(mu)  ||d||  lg(rg) alpha_du alpha_pr  ls
 170  3.1251622e-01 2.42e-03 3.17e-03  -5.7 5.81e-01    -  4.75e-01 5.17e-01f  1
 171  3.1251934e-01 1.34e-03 2.20e-04  -5.7 4.91e-02    -  1.00e+00 1.00e+00h  1
 172  3.1253728e-01 4.05e-04 1.19e-04  -5.7 5.48e-02    -  1.00e+00 1.00e+00h  1
 173  3.1254053e-01 3.38e-05 9.61e-05  -5.7 4.66e-02    -  1.00e+00 1.00e+00h  1
 174  3.1254193e-01 4.39e-05 2.68e-03  -5.7 1.10e-01    -  1.00e+00 4.68e-01h  1
 175  3.1265406e-01 6.09e-04 1.03e-02  -5.7 3.71e-01    -  7.45e-01 1.00e+00f  1
 176  3.1258580e-01 5.80e-04 6.25e-03  -5.7 5.64e-01    -  1.00e+00 3.09e-01h  1
 177  3.1245632e-01 1.04e-03 2.07e-03  -5.7 6.98e-01    -  7.88e-01 3.88e-01f  1
 178  3.1240679e-01 2.11e-03 1.20e-03  -5.7 1.35e-01    -  4.89e-01 1.00e+00f  1
 179  3.1241491e-01 1.34e-03 2.37e-03  -5.7 1.29e-01    -  1.00e+00 4.69e-01h  1
iter    objective    inf_pr   inf_du lg(mu)  ||d||  lg(rg) alpha_du alpha_pr  ls
 180  3.1245794e-01 6.01e-04 1.71e-04  -5.7 5.45e-02    -  1.00e+00 1.00e+00h  1
 181  3.1245396e-01 1.79e-04 7.20e-05  -5.7 3.41e-02    -  1.00e+00 1.00e+00h  1
 182  3.1248370e-01 1.44e-06 8.30e-05  -5.7 2.70e-02    -  1.00e+00 1.00e+00h  1
 183  3.1247538e-01 7.41e-05 7.03e-03  -5.7 3.14e-01    -  1.00e+00 5.51e-01h  1
 184  3.1239171e-01 7.96e-05 7.21e-03  -5.7 9.37e-01    -  1.00e+00 3.12e-01f  1
 185  3.1230727e-01 1.22e-04 7.30e-03  -5.7 1.01e+00    -  8.85e-01 3.04e-01f  1
 186  3.1223434e-01 3.15e-04 8.26e-03  -5.7 6.71e-01    -  1.00e+00 3.33e-01f  1
 187  3.1223081e-01 1.32e-03 5.12e-04  -5.7 2.80e-01    -  1.00e+00 1.00e+00f  1
 188  3.1213118e-01 1.09e-03 1.05e-04  -5.7 1.16e-01    -  1.00e+00 1.00e+00h  1
 189  3.1216696e-01 4.10e-04 1.42e-04  -5.7 2.83e-02    -  1.00e+00 1.00e+00h  1
iter    objective    inf_pr   inf_du lg(mu)  ||d||  lg(rg) alpha_du alpha_pr  ls
 190  3.1217038e-01 1.15e-04 5.79e-05  -5.7 3.76e-02    -  1.00e+00 1.00e+00h  1
 191  3.1219538e-01 0.00e+00 4.43e-05  -5.7 2.38e-02    -  1.00e+00 1.00e+00h  1
 192  3.1225192e-01 7.10e-05 3.79e-04  -5.7 1.73e-01    -  9.36e-01 9.63e-01h  1
 193  3.1223245e-01 7.86e-04 3.77e-04  -5.7 4.15e-01    -  1.00e+00 1.00e+00f  1
 194  3.1211437e-01 1.22e-03 2.45e-04  -5.7 1.64e-01    -  1.00e+00 1.00e+00h  1
 195  3.1215058e-01 8.18e-04 7.50e-04  -5.7 1.31e-01    -  1.00e+00 7.53e-01h  1
 196  3.1216777e-01 1.75e-04 7.31e-05  -5.7 8.79e-02    -  1.00e+00 1.00e+00h  1
 197  3.1220334e-01 4.37e-05 6.09e-05  -5.7 6.25e-02    -  1.00e+00 1.00e+00h  1
 198  3.1219264e-01 2.22e-04 7.65e-05  -5.7 9.97e-02    -  1.00e+00 1.00e+00h  1
 199  3.1218147e-01 1.50e-04 5.59e-05  -5.7 2.11e-02    -  1.00e+00 1.00e+00h  1
iter    objective    inf_pr   inf_du lg(mu)  ||d||  lg(rg) alpha_du alpha_pr  ls
 200  3.1218528e-01 2.90e-05 3.15e-05  -5.7 2.08e-02    -  1.00e+00 1.00e+00h  1

Number of Iterations....: 200

                                   (scaled)                 (unscaled)
Objective...............:   3.1218527815983371e-01    3.1218527815983371e-01
Dual infeasibility......:   3.1518385800173003e-05    3.1518385800173003e-05
Constraint violation....:   2.8988839076941996e-05    2.8988839076941996e-05
Complementarity.........:   1.8452710630477772e-06    1.8452710630477772e-06
Overall NLP error.......:   3.1518385800173003e-05    3.1518385800173003e-05


Number of objective function evaluations             = 201
Number of objective gradient evaluations             = 201
Number of equality constraint evaluations            = 0
Number of inequality constraint evaluations          = 201
Number of equality constraint Jacobian evaluations   = 0
Number of inequality constraint Jacobian evaluations = 201
Number of Lagrangian Hessian evaluations             = 0
Total CPU secs in IPOPT (w/o function evaluations)   =     38.239
Total CPU secs in NLP function evaluations           =    426.206

EXIT: Maximum Number of Iterations Exceeded.
